c Random 3-CNF over 150 variables and 30 clauses
c Generated with `cnfgen`
c (C) 2012-2018 Massimo Lauria <lauria.massimo@gmail.com>
c https://massimolauria.github.io/cnfgen
c
c COMMAND LINE: cnfgen -o 3/3_0.2000000000_32.cnf randkcnf 3 150 30
c
p cnf 150 30
-43 -70 -142 0
-58 -76 -95 0
-67 71 -108 0
-49 -80 142 0
-6 76 -113 0
63 70 112 0
-20 -27 34 0
-44 -62 -103 0
79 -131 136 0
12 -67 -116 0
-3 -127 -142 0
20 -32 -96 0
-144 -146 150 0
20 102 137 0
49 102 103 0
34 -90 116 0
-7 48 124 0
-7 30 121 0
11 -46 75 0
20 86 -145 0
-32 -49 116 0
-112 136 -147 0
15 53 137 0
-96 -115 127 0
-27 -53 122 0
-66 -83 -140 0
30 60 -139 0
75 -77 146 0
48 -104 -123 0
1 -5 37 0
